data_General
_audit_creation_date                    2014-02-12
_audit_creation_method                 'by CrystalStructure 4.0'
_audit_update_record                    ?

#==============================================================================
# PROCESSING SUMMARY (IUCr Office Use Only)

_journal_date_recd_electronic           ?
_journal_date_from_coeditor             ?
_journal_date_accepted                  ?
_journal_coeditor_code                  ?

#==============================================================================
# SUBMISSION DETAILS

_publ_contact_author_name              'ENTER NAME'
_publ_contact_author_email             'ENTER EMAIL ADDRESS'
_publ_contact_author_fax               'ENTER FAX NUMBER'
_publ_contact_author_phone             'ENTER PHONE NUMBER'
_publ_contact_letter
;
    ENTER TEXT OF LETTER
;
_publ_requested_journal                'ENTER JOURNAL NAME HERE'
_publ_requested_category               'CHOOSE FI FM FO CI CM CO or AD'
_publ_requested_coeditor_name           ?

#==============================================================================
# TITLE AND AUTHOR LIST

_publ_section_title
;
    ENTER SECTION TITLE
;
_publ_section_title_footnote
;
    ENTER FOOTNOTE TO TITLE OF PAPER
;
loop_
_publ_author_name
_publ_author_footnote
_publ_author_address
' FIRST AUTHORS NAME '
;
  FIRST AUTHORS FOOTNOTES
;
;
  FIRST AUTHORS ADDRESS
;
_publ_section_synopsis
;
    ENTER SYNOPSIS
;

#==============================================================================
# TEXT

_publ_section_abstract
;
    ENTER ABSTRACT
;
_publ_section_comment
;
    ENTER TEXT
;
_publ_section_references
;
    ENTER OTHER REFERENCES

    Rigaku (2010). CrystalStructure. Version 4.0. 
    Rigaku Corporation, Tokyo, Japan.

    Sheldrick, G.M. (2008).
    Acta Cryst. A64, 112-122.
    SHELX97

;
_publ_section_figure_captions
;
    ENTER FIGURE CAPTIONS
;
_publ_section_exptl_prep
;
    ENTER COMPOUND PREPARATION DETAILS
;
_publ_section_exptl_refinement
;
    ENTER SPECIAL DETAILS OF THE REFINEMENT
;

#==============================================================================
data_HBTBT

#==============================================================================
# CHEMICAL DATA

_chemical_formula_sum                  'C14 H8 S2'
_chemical_formula_moiety               'C14 H8 S2'
_chemical_formula_weight                240.34
_chemical_melting_point                 ?

#==============================================================================
# CRYSTAL DATA
_symmetry_cell_setting                  monoclinic
_symmetry_space_group_name_H-M         'P 1 21/c 1'
_symmetry_space_group_name_Hall        '-P 2ybc'
_symmetry_Int_Tables_number             14
loop_
_symmetry_equiv_pos_site_id
_symmetry_equiv_pos_as_xyz
1   '+X,+Y,+Z'
2   '-X,1/2+Y,1/2-Z'
3   '-X,-Y,-Z'
4   '+X,1/2-Y,1/2+Z'
#------------------------------------------------------------------------------
_cell_length_a                          11.8366(15)
_cell_length_b                          5.8736(6)
_cell_length_c                          8.0796(10)
_cell_angle_alpha                       90.0000
_cell_angle_beta                        106.513(2)
_cell_angle_gamma                       90.0000
_cell_volume                            538.55(11)
_cell_formula_units_Z                   2
_cell_measurement_reflns_used           3480
_cell_measurement_theta_min             1.74
_cell_measurement_theta_max             24.66
_cell_measurement_temperature           293
#------------------------------------------------------------------------------
_exptl_crystal_description              unknown
_exptl_crystal_colour                   unknown
_exptl_crystal_size_max                 0.000
_exptl_crystal_size_mid                 0.000
_exptl_crystal_size_min                 0.000
_exptl_crystal_density_diffrn           1.482
_exptl_crystal_density_meas             ?
_exptl_crystal_density_method          'not measured'
_exptl_crystal_F_000                    248.00
_exptl_absorpt_coefficient_mu           0.000
_exptl_absorpt_correction_type          none

#==============================================================================
# EXPERIMENTAL DATA

_diffrn_ambient_temperature             293
_diffrn_radiation_type                 'Sr K\a'
_diffrn_radiation_wavelength            0.68930
_diffrn_measurement_device_type         ?
_diffrn_reflns_number                   2889
_diffrn_reflns_av_R_equivalents         0.0420
_diffrn_reflns_theta_max                24.50
_diffrn_reflns_theta_full               24.50
_diffrn_measured_fraction_theta_max     0.952
_diffrn_measured_fraction_theta_full    0.952
_diffrn_reflns_limit_h_min             -14
_diffrn_reflns_limit_h_max              14
_diffrn_reflns_limit_k_min             -6
_diffrn_reflns_limit_k_max              4
_diffrn_reflns_limit_l_min             -9
_diffrn_reflns_limit_l_max              9
_diffrn_standards_number                0
_diffrn_standards_interval_count        .
_diffrn_standards_decay_%               ?

#==============================================================================
# REFINEMENT DATA

_refine_special_details
;
    Refinement was performed using all reflections. The weighted 
    R-factor (wR) and goodness of fit (S) are based on F^2^.
    R-factor (gt) are based on F. The threshold expression of
    F^2^ > 2.0 sigma(F^2^) is used only for calculating R-factor (gt).
;
_reflns_number_total                    931
_reflns_number_gt                       857
_reflns_threshold_expression            F^2^>2.0\s(F^2^)
_refine_ls_structure_factor_coef        Fsqd
_refine_ls_R_factor_gt                  0.0493
_refine_ls_wR_factor_ref                0.1365
_refine_ls_number_restraints            0
_refine_ls_hydrogen_treatment           constr
_refine_ls_number_reflns                931
_refine_ls_number_parameters            73
_refine_ls_goodness_of_fit_ref          1.051
_refine_ls_weighting_scheme             calc
_refine_ls_weighting_details
           'w = 1/[\s^2^(Fo^2^)+(0.1075P)^2^+0.0472P] where P=(Fo^2^+2Fc^2^)/3'
_atom_sites_solution_hydrogens          geom
_atom_sites_solution_primary            direct
_atom_sites_solution_secondary          difmap
_refine_ls_shift/su_max                 0.000
_refine_diff_density_max                0.510
_refine_diff_density_min               -0.380
_refine_ls_extinction_method            none
_refine_ls_extinction_coef              ?

loop_
_atom_type_symbol
_atom_type_description
_atom_type_scat_dispersion_real
_atom_type_scat_dispersion_imag
_atom_type_scat_source
  'C' 'C'  0.0000 0.0000 
;
International Tables for Crystallography
(1992, Vol. C, Tables 4.2.6.8 and 6.1.1.4)
;
  'H' 'H'  0.0000 0.0000 
;
International Tables for Crystallography
(1992, Vol. C, Table 6.1.1.4)
;
  'S' 'S'  0.0000 0.0000 
;
International Tables for Crystallography
(1992, Vol. C, Tables 4.2.6.8 and 6.1.1.4)
;

#==============================================================================
# ATOMIC COORDINATES AND THERMAL PARAMETERS

loop_
_atom_site_label
_atom_site_type_symbol
_atom_site_fract_x
_atom_site_fract_y
_atom_site_fract_z
_atom_site_U_iso_or_equiv
_atom_site_adp_type
_atom_site_occupancy
_atom_site_symmetry_multiplicity
_atom_site_calc_flag
_atom_site_refinement_flags
_atom_site_disorder_assembly
_atom_site_disorder_group
 S1 S 0.07956(4) 0.21751(9) 0.14244(6) 0.0475(4) Uani 1.0 4 d . . .
 C1 C -0.02482(15) 0.4083(3) 0.0276(2) 0.0387(5) Uani 1.0 4 d . . .
 C2 C 0.19220(16) 0.3874(4) 0.1110(3) 0.0431(5) Uani 1.0 4 d . . .
 C3 C 0.31148(18) 0.3410(5) 0.1690(3) 0.0569(6) Uani 1.0 4 d . . .
 C4 C 0.38877(17) 0.4928(4) 0.1322(3) 0.0615(7) Uani 1.0 4 d . . .
 C5 C 0.34886(19) 0.6895(4) 0.0378(3) 0.0613(7) Uani 1.0 4 d . . .
 C6 C 0.2310(2) 0.7366(4) -0.0202(3) 0.0496(6) Uani 1.0 4 d . . .
 C7 C 0.14995(15) 0.5860(3) 0.0166(2) 0.0402(5) Uani 1.0 4 d . . .
 H3 H 0.3387 0.2094 0.2317 0.0683 Uiso 1.0 4 calc R . .
 H4 H 0.4693 0.4639 0.1709 0.0738 Uiso 1.0 4 calc R . .
 H5 H 0.4029 0.7900 0.0139 0.0736 Uiso 1.0 4 calc R . .
 H6 H 0.2049 0.8681 -0.0836 0.0595 Uiso 1.0 4 calc R . .


loop_
_atom_site_aniso_label
_atom_site_aniso_U_11
_atom_site_aniso_U_22
_atom_site_aniso_U_33
_atom_site_aniso_U_12
_atom_site_aniso_U_13
_atom_site_aniso_U_23
 S1 0.0520(5) 0.0394(6) 0.0501(5) 0.00263(16) 0.0127(3) 0.01116(16)
 C1 0.0509(10) 0.0347(11) 0.0330(9) 0.0018(7) 0.0158(7) 0.0002(6)
 C2 0.0498(10) 0.0422(12) 0.0374(9) -0.0004(7) 0.0125(7) -0.0027(7)
 C3 0.0527(12) 0.0588(14) 0.0555(12) 0.0078(10) 0.0092(9) -0.0012(10)
 C4 0.0470(11) 0.0683(16) 0.0678(13) 0.0007(10) 0.0139(9) -0.0057(11)
 C5 0.0552(13) 0.0707(18) 0.0626(13) -0.0143(10) 0.0241(10) -0.0062(11)
 C6 0.0574(13) 0.0464(12) 0.0476(12) -0.0054(9) 0.0191(9) 0.0035(8)
 C7 0.0492(10) 0.0399(11) 0.0333(9) 0.0008(7) 0.0147(7) -0.0038(7)

#==============================================================================
_computing_data_collection              PROCESS-AUTO
_computing_cell_refinement              PROCESS-AUTO
_computing_data_reduction               PROCESS-AUTO
_computing_structure_solution          'SHELXS97 (Sheldrick, 2008)'
_computing_structure_refinement        'SHELXL97 (Sheldrick, 2008)'
_computing_publication_material        'CrystalStructure 4.0 (Rigaku, 2010)'
_computing_molecular_graphics          'CrystalStructure 4.0'

#==============================================================================
# MOLECULAR GEOMETRY

_geom_special_details
;
    ENTER SPECIAL DETAILS OF THE MOLECULAR GEOMETRY
;

loop_
_geom_bond_atom_site_label_1
_geom_bond_atom_site_label_2
_geom_bond_distance
_geom_bond_publ_flag
_geom_bond_site_symmetry_1
_geom_bond_site_symmetry_2
S1 C1 1.7296(17) yes . .
S1 C2 1.741(2) yes . .
C1 C1 1.361(3) yes . 3_565
C1 C7 1.422(3) yes . 3_565
C2 C3 1.382(3) yes . .
C2 C7 1.405(3) yes . .
C3 C4 1.369(4) yes . .
C4 C5 1.391(4) yes . .
C5 C6 1.368(3) yes . .
C6 C7 1.397(3) yes . .
C3 H3 0.930 no . .
C4 H4 0.930 no . .
C5 H5 0.930 no . .
C6 H6 0.930 no . .

loop_
_geom_angle_atom_site_label_1
_geom_angle_atom_site_label_2
_geom_angle_atom_site_label_3
_geom_angle
_geom_angle_publ_flag
_geom_angle_site_symmetry_1
_geom_angle_site_symmetry_2
_geom_angle_site_symmetry_3
C1 S1 C2 90.58(9) yes . . .
S1 C1 C1 112.30(13) yes . . 3_565
S1 C1 C7 133.17(14) yes . . 3_565
C1 C1 C7 114.51(15) yes 3_565 . 3_565
S1 C2 C3 126.02(16) yes . . .
S1 C2 C7 112.69(14) yes . . .
C3 C2 C7 121.29(19) yes . . .
C2 C3 C4 118.6(2) yes . . .
C3 C4 C5 121.07(19) yes . . .
C4 C5 C6 120.7(3) yes . . .
C5 C6 C7 119.6(2) yes . . .
C1 C7 C2 109.90(16) yes 3_565 . .
C1 C7 C6 131.35(17) yes 3_565 . .
C2 C7 C6 118.74(17) yes . . .
C2 C3 H3 120.691 no . . .
C4 C3 H3 120.697 no . . .
C3 C4 H4 119.460 no . . .
C5 C4 H4 119.469 no . . .
C4 C5 H5 119.658 no . . .
C6 C5 H5 119.663 no . . .
C5 C6 H6 120.195 no . . .
C7 C6 H6 120.204 no . . .

loop_
_geom_torsion_atom_site_label_1
_geom_torsion_atom_site_label_2
_geom_torsion_atom_site_label_3
_geom_torsion_atom_site_label_4
_geom_torsion
_geom_torsion_publ_flag
_geom_torsion_site_symmetry_1
_geom_torsion_site_symmetry_2
_geom_torsion_site_symmetry_3
_geom_torsion_site_symmetry_4
C1 S1 C2 C3 -179.20(15) no . . . .
C1 S1 C2 C7 0.71(13) no . . . .
C2 S1 C1 C1 -1.13(12) no . . . 3_565
C2 S1 C1 C7 -179.52(16) no . . . 3_565
S1 C1 C1 S1 180(143233) no . . 3_565 3_565
S1 C1 C1 C7 1.29(19) no . . 3_565 .
S1 C1 C7 C2 179.10(13) no . . 3_565 3_565
S1 C1 C7 C6 0.3(3) no . . 3_565 3_565
C1 C1 C7 C2 0.7(2) no 3_565 . 3_565 3_565
C1 C1 C7 C6 -178.10(16) no 3_565 . 3_565 3_565
C7 C1 C1 S1 -1.3(2) no 3_565 . 3_565 3_565
C7 C1 C1 C7 -180(148039) no 3_565 . 3_565 .
S1 C2 C3 C4 179.67(13) no . . . .
S1 C2 C7 C1 -0.14(18) no . . . 3_565
S1 C2 C7 C6 -179.14(11) no . . . .
C3 C2 C7 C1 179.78(17) no . . . 3_565
C3 C2 C7 C6 0.8(3) no . . . .
C7 C2 C3 C4 -0.2(3) no . . . .
C2 C3 C4 C5 -0.3(4) no . . . .
C3 C4 C5 C6 0.3(4) no . . . .
C4 C5 C6 C7 0.3(4) no . . . .
C5 C6 C7 C1 -179.55(19) no . . . 3_565
C5 C6 C7 C2 -0.8(3) no . . . .

loop_
_geom_contact_atom_site_label_1
_geom_contact_atom_site_label_2
_geom_contact_distance
_geom_contact_publ_flag
_geom_contact_site_symmetry_1
_geom_contact_site_symmetry_2
S1 C6 3.535(3) no . 3_565
C2 C5 2.749(4) no . .
C3 C6 2.796(4) no . .
C4 C7 2.768(3) no . .
S1 S1 3.5930(8) no . 3_555
S1 C1 3.4362(19) no . 2_545
S1 C7 3.4028(18) no . 4_555
C1 S1 3.4362(19) no . 2_555
C7 S1 3.4028(18) no . 4_554
S1 H3 2.9445 no . .
S1 H6 3.3026 no . 3_565
C1 H6 2.8166 no . 3_565
C2 H4 3.2073 no . .
C2 H6 3.2558 no . .
C3 H5 3.2351 no . .
C4 H6 3.2373 no . .
C5 H3 3.2445 no . .
C6 H4 3.2295 no . .
C7 H3 3.2704 no . .
C7 H5 3.2304 no . .
H3 H4 2.3013 no . .
H4 H5 2.3085 no . .
H5 H6 2.2962 no . .
S1 H6 3.3601 no . 1_545
S1 H6 3.3402 no . 4_565
C2 H6 3.4544 no . 1_545
C2 H6 2.8218 no . 4_565
C3 H4 3.3774 no . 2_645
C3 H5 3.4525 no . 4_565
C3 H6 3.4653 no . 1_545
C3 H6 3.1525 no . 4_565
C4 H3 3.3498 no . 2_655
C4 H3 3.3378 no . 4_554
C4 H4 3.3899 no . 2_655
C4 H4 3.3508 no . 3_665
C4 H5 3.4160 no . 2_645
C4 H5 3.4480 no . 3_665
C4 H5 3.2976 no . 4_565
C5 H3 3.4500 no . 1_565
C5 H3 3.3839 no . 4_554
C5 H4 3.1448 no . 2_655
C5 H4 3.2181 no . 3_665
C6 H3 3.4646 no . 1_565
C7 H6 3.1200 no . 4_565
H3 C4 3.3498 no . 2_645
H3 C4 3.3378 no . 4_555
H3 C5 3.4500 no . 1_545
H3 C5 3.3839 no . 4_555
H3 C6 3.4646 no . 1_545
H3 H4 2.6177 no . 2_645
H3 H4 3.5917 no . 4_555
H3 H5 3.2412 no . 1_545
H3 H5 3.1991 no . 2_645
H3 H6 3.2747 no . 1_545
H3 H6 3.4974 no . 4_565
H4 C3 3.3774 no . 2_655
H4 C4 3.3899 no . 2_645
H4 C4 3.3508 no . 3_665
H4 C5 3.1448 no . 2_645
H4 C5 3.2181 no . 3_665
H4 H3 2.6177 no . 2_655
H4 H3 3.5917 no . 4_554
H4 H4 3.2028 no . 2_645
H4 H4 3.2028 no . 2_655
H4 H4 3.0795 no . 3_665
H4 H5 2.7618 no . 2_645
H4 H5 2.8336 no . 3_665
H4 H5 3.4093 no . 4_565
H5 C3 3.4525 no . 4_564
H5 C4 3.4160 no . 2_655
H5 C4 3.4480 no . 3_665
H5 C4 3.2976 no . 4_564
H5 H3 3.2412 no . 1_565
H5 H3 3.1991 no . 2_655
H5 H4 2.7618 no . 2_655
H5 H4 2.8336 no . 3_665
H5 H4 3.4093 no . 4_564
H5 H5 3.4232 no . 3_675
H6 S1 3.3601 no . 1_565
H6 S1 3.3402 no . 4_564
H6 C2 3.4544 no . 1_565
H6 C2 2.8218 no . 4_564
H6 C3 3.4653 no . 1_565
H6 C3 3.1525 no . 4_564
H6 C7 3.1200 no . 4_564
H6 H3 3.2747 no . 1_565
H6 H3 3.4974 no . 4_564

#==============================================================================

#==============================================================================
# Additional structures and associated data_? identifiers
# should be added at this point if there is more than one 
# structure analysis in the CIF.

#==============================================================================
#     End of CIF
#==============================================================================
